sat
(
  (define-fun StorageProv1 () Int
    2000)
  (define-fun C2_VM5 () Int
    0)
  (define-fun C1_VM4 () Int
    0)
  (define-fun PriceProv2 () Int
    402)
  (define-fun PriceProv6 () Int
    402)
  (define-fun C5_VM6 () Int
    1)
  (define-fun C5_VM4 () Int
    0)
  (define-fun ProcProv1 () Int
    8)
  (define-fun PriceProv1 () Int
    1288)
  (define-fun VM4Type () Int
    0)
  (define-fun ProcProv4 () Int
    7)
  (define-fun MemProv1 () Int
    68400)
  (define-fun C3_VM4 () Int
    0)
  (define-fun StorageProv6 () Int
    2000)
  (define-fun C5_VM3 () Int
    0)
  (define-fun C3_VM2 () Int
    0)
  (define-fun VM6Type () Int
    13)
  (define-fun VM1Type () Int
    12)
  (define-fun C1_VM2 () Int
    0)
  (define-fun MemProv3 () Int
    68400)
  (define-fun MemProv4 () Int
    121999)
  (define-fun ProcProv5 () Int
    4)
  (define-fun MemProv2 () Int
    15000)
  (define-fun ProcProv6 () Int
    4)
  (define-fun C4_VM6 () Int
    0)
  (define-fun C4_VM3 () Int
    1)
  (define-fun StorageProv3 () Int
    2000)
  (define-fun StorageProv4 () Int
    1999)
  (define-fun C3_VM3 () Int
    0)
  (define-fun C5_VM2 () Int
    1)
  (define-fun MemProv5 () Int
    30500)
  (define-fun MemProv6 () Int
    15000)
  (define-fun C4_VM4 () Int
    0)
  (define-fun C1_VM6 () Int
    0)
  (define-fun ProcProv3 () Int
    8)
  (define-fun C3_VM1 () Int
    1)
  (define-fun C4_VM2 () Int
    0)
  (define-fun StorageProv2 () Int
    2000)
  (define-fun C2_VM3 () Int
    0)
  (define-fun PriceProv5 () Int
    379)
  (define-fun C1_VM5 () Int
    1)
  (define-fun VM5Type () Int
    15)
  (define-fun C3_VM6 () Int
    0)
  (define-fun C4_VM5 () Int
    0)
  (define-fun StorageProv5 () Int
    1000)
  (define-fun VM2Type () Int
    13)
  (define-fun PriceProv4 () Int
    0)
  (define-fun VM3Type () Int
    12)
  (define-fun ProcProv2 () Int
    4)
  (define-fun C5_VM1 () Int
    1)
  (define-fun C4_VM1 () Int
    0)
  (define-fun C2_VM6 () Int
    1)
  (define-fun C1_VM3 () Int
    0)
  (define-fun C2_VM2 () Int
    1)
  (define-fun C3_VM5 () Int
    0)
  (define-fun C5_VM5 () Int
    0)
  (define-fun C2_VM4 () Int
    0)
  (define-fun PriceProv3 () Int
    1288)
  (define-fun C2_VM1 () Int
    0)
  (define-fun C1_VM1 () Int
    0)
)
(objectives
 ((+ 0 PriceProv1 PriceProv2 PriceProv3 PriceProv4 PriceProv5 PriceProv6) 3759)
)
(:added-eqs                   93924
 :arith-eq-adapter            8091
 :arith-bound-propagations-lp 95489
 :arith-conflicts             196
 :arith-diseq                 154142
 :arith-fixed-eqs             1562
 :arith-lower                 175050
 :arith-make-feasible         17867
 :arith-max-columns           125
 :arith-max-rows              20
 :arith-upper                 160099
 :binary-propagations         518373
 :conflicts                   2889
 :decisions                   22345
 :del-clause                  9261
 :final-checks                125
 :max-memory                  41.50
 :memory                      41.50
 :minimized-lits              22064
 :mk-bool-var                 17385
 :mk-clause                   10135
 :mk-clause-binary            2946
 :num-allocs                  24948766
 :num-checks                  96
 :pb-conflicts                564
 :pb-predicates               234
 :pb-propagations             4365
 :pb-resolves                 558
 :propagations                856040
 :restarts                    22
 :rlimit-count                5045852
 :solve-eqs-elim-vars         1
 :solve-eqs-steps             10
 :time                        0.28
 :total-time                  0.29)
